c File: flat50_3_0.col
c
c SOURCE: Joseph Culberson (joe@cs.ualberta.ca)
c DESCRIPTION: Quasi-random coloring problem
c              generated with flatness = 0
c                             probability = 0.139
c                             known coloring = 3
c                             random seed = 1728
c              Creation Date:  Tue Jun  9 12:16:24 1998
c Maximum degree = 8 Minimum degree = 1
c p edge 50 115
c cnf created by edge2cnf
p cnf 150 545
-1 -2 0
-1 -3 0
-2 -3 0
1 2 3 0
-4 -5 0
-4 -6 0
-5 -6 0
4 5 6 0
-7 -8 0
-7 -9 0
-8 -9 0
7 8 9 0
-10 -11 0
-10 -12 0
-11 -12 0
10 11 12 0
-13 -14 0
-13 -15 0
-14 -15 0
13 14 15 0
-16 -17 0
-16 -18 0
-17 -18 0
16 17 18 0
-19 -20 0
-19 -21 0
-20 -21 0
19 20 21 0
-22 -23 0
-22 -24 0
-23 -24 0
22 23 24 0
-25 -26 0
-25 -27 0
-26 -27 0
25 26 27 0
-28 -29 0
-28 -30 0
-29 -30 0
28 29 30 0
-31 -32 0
-31 -33 0
-32 -33 0
31 32 33 0
-34 -35 0
-34 -36 0
-35 -36 0
34 35 36 0
-37 -38 0
-37 -39 0
-38 -39 0
37 38 39 0
-40 -41 0
-40 -42 0
-41 -42 0
40 41 42 0
-43 -44 0
-43 -45 0
-44 -45 0
43 44 45 0
-46 -47 0
-46 -48 0
-47 -48 0
46 47 48 0
-49 -50 0
-49 -51 0
-50 -51 0
49 50 51 0
-52 -53 0
-52 -54 0
-53 -54 0
52 53 54 0
-55 -56 0
-55 -57 0
-56 -57 0
55 56 57 0
-58 -59 0
-58 -60 0
-59 -60 0
58 59 60 0
-61 -62 0
-61 -63 0
-62 -63 0
61 62 63 0
-64 -65 0
-64 -66 0
-65 -66 0
64 65 66 0
-67 -68 0
-67 -69 0
-68 -69 0
67 68 69 0
-70 -71 0
-70 -72 0
-71 -72 0
70 71 72 0
-73 -74 0
-73 -75 0
-74 -75 0
73 74 75 0
-76 -77 0
-76 -78 0
-77 -78 0
76 77 78 0
-79 -80 0
-79 -81 0
-80 -81 0
79 80 81 0
-82 -83 0
-82 -84 0
-83 -84 0
82 83 84 0
-85 -86 0
-85 -87 0
-86 -87 0
85 86 87 0
-88 -89 0
-88 -90 0
-89 -90 0
88 89 90 0
-91 -92 0
-91 -93 0
-92 -93 0
91 92 93 0
-94 -95 0
-94 -96 0
-95 -96 0
94 95 96 0
-97 -98 0
-97 -99 0
-98 -99 0
97 98 99 0
-100 -101 0
-100 -102 0
-101 -102 0
100 101 102 0
-103 -104 0
-103 -105 0
-104 -105 0
103 104 105 0
-106 -107 0
-106 -108 0
-107 -108 0
106 107 108 0
-109 -110 0
-109 -111 0
-110 -111 0
109 110 111 0
-112 -113 0
-112 -114 0
-113 -114 0
112 113 114 0
-115 -116 0
-115 -117 0
-116 -117 0
115 116 117 0
-118 -119 0
-118 -120 0
-119 -120 0
118 119 120 0
-121 -122 0
-121 -123 0
-122 -123 0
121 122 123 0
-124 -125 0
-124 -126 0
-125 -126 0
124 125 126 0
-127 -128 0
-127 -129 0
-128 -129 0
127 128 129 0
-130 -131 0
-130 -132 0
-131 -132 0
130 131 132 0
-133 -134 0
-133 -135 0
-134 -135 0
133 134 135 0
-136 -137 0
-136 -138 0
-137 -138 0
136 137 138 0
-139 -140 0
-139 -141 0
-140 -141 0
139 140 141 0
-142 -143 0
-142 -144 0
-143 -144 0
142 143 144 0
-145 -146 0
-145 -147 0
-146 -147 0
145 146 147 0
-148 -149 0
-148 -150 0
-149 -150 0
148 149 150 0
-67 -1 0
-68 -2 0
-69 -3 0
-118 -1 0
-119 -2 0
-120 -3 0
-127 -1 0
-128 -2 0
-129 -3 0
-52 -4 0
-53 -5 0
-54 -6 0
-58 -4 0
-59 -5 0
-60 -6 0
-73 -4 0
-74 -5 0
-75 -6 0
-94 -4 0
-95 -5 0
-96 -6 0
-130 -4 0
-131 -5 0
-132 -6 0
-58 -7 0
-59 -8 0
-60 -9 0
-64 -7 0
-65 -8 0
-66 -9 0
-67 -7 0
-68 -8 0
-69 -9 0
-106 -7 0
-107 -8 0
-108 -9 0
-112 -7 0
-113 -8 0
-114 -9 0
-142 -7 0
-143 -8 0
-144 -9 0
-148 -7 0
-149 -8 0
-150 -9 0
-55 -10 0
-56 -11 0
-57 -12 0
-88 -10 0
-89 -11 0
-90 -12 0
-148 -10 0
-149 -11 0
-150 -12 0
-52 -13 0
-53 -14 0
-54 -15 0
-70 -13 0
-71 -14 0
-72 -15 0
-121 -13 0
-122 -14 0
-123 -15 0
-124 -13 0
-125 -14 0
-126 -15 0
-73 -16 0
-74 -17 0
-75 -18 0
-85 -16 0
-86 -17 0
-87 -18 0
-88 -16 0
-89 -17 0
-90 -18 0
-139 -16 0
-140 -17 0
-141 -18 0
-145 -16 0
-146 -17 0
-147 -18 0
-58 -19 0
-59 -20 0
-60 -21 0
-61 -19 0
-62 -20 0
-63 -21 0
-85 -19 0
-86 -20 0
-87 -21 0
-91 -19 0
-92 -20 0
-93 -21 0
-115 -19 0
-116 -20 0
-117 -21 0
-121 -19 0
-122 -20 0
-123 -21 0
-136 -19 0
-137 -20 0
-138 -21 0
-73 -22 0
-74 -23 0
-75 -24 0
-76 -22 0
-77 -23 0
-78 -24 0
-79 -22 0
-80 -23 0
-81 -24 0
-88 -22 0
-89 -23 0
-90 -24 0
-121 -22 0
-122 -23 0
-123 -24 0
-136 -22 0
-137 -23 0
-138 -24 0
-52 -25 0
-53 -26 0
-54 -27 0
-130 -25 0
-131 -26 0
-132 -27 0
-133 -25 0
-134 -26 0
-135 -27 0
-148 -25 0
-149 -26 0
-150 -27 0
-88 -28 0
-89 -29 0
-90 -30 0
-100 -28 0
-101 -29 0
-102 -30 0
-109 -28 0
-110 -29 0
-111 -30 0
-115 -28 0
-116 -29 0
-117 -30 0
-118 -28 0
-119 -29 0
-120 -30 0
-82 -31 0
-83 -32 0
-84 -33 0
-52 -34 0
-53 -35 0
-54 -36 0
-58 -34 0
-59 -35 0
-60 -36 0
-79 -34 0
-80 -35 0
-81 -36 0
-106 -34 0
-107 -35 0
-108 -36 0
-112 -34 0
-113 -35 0
-114 -36 0
-130 -34 0
-131 -35 0
-132 -36 0
-136 -34 0
-137 -35 0
-138 -36 0
-97 -37 0
-98 -38 0
-99 -39 0
-103 -37 0
-104 -38 0
-105 -39 0
-106 -37 0
-107 -38 0
-108 -39 0
-115 -37 0
-116 -38 0
-117 -39 0
-64 -40 0
-65 -41 0
-66 -42 0
-79 -40 0
-80 -41 0
-81 -42 0
-85 -40 0
-86 -41 0
-87 -42 0
-142 -40 0
-143 -41 0
-144 -42 0
-148 -40 0
-149 -41 0
-150 -42 0
-73 -43 0
-74 -44 0
-75 -45 0
-100 -43 0
-101 -44 0
-102 -45 0
-118 -43 0
-119 -44 0
-120 -45 0
-127 -43 0
-128 -44 0
-129 -45 0
-100 -46 0
-101 -47 0
-102 -48 0
-112 -46 0
-113 -47 0
-114 -48 0
-55 -49 0
-56 -50 0
-57 -51 0
-79 -49 0
-80 -50 0
-81 -51 0
-97 -49 0
-98 -50 0
-99 -51 0
-112 -49 0
-113 -50 0
-114 -51 0
-133 -49 0
-134 -50 0
-135 -51 0
-145 -49 0
-146 -50 0
-147 -51 0
-106 -52 0
-107 -53 0
-108 -54 0
-118 -52 0
-119 -53 0
-120 -54 0
-112 -55 0
-113 -56 0
-114 -57 0
-142 -55 0
-143 -56 0
-144 -57 0
-106 -61 0
-107 -62 0
-108 -63 0
-109 -61 0
-110 -62 0
-111 -63 0
-127 -61 0
-128 -62 0
-129 -63 0
-136 -61 0
-137 -62 0
-138 -63 0
-118 -64 0
-119 -65 0
-120 -66 0
-112 -67 0
-113 -68 0
-114 -69 0
-106 -70 0
-107 -71 0
-108 -72 0
-115 -70 0
-116 -71 0
-117 -72 0
-121 -70 0
-122 -71 0
-123 -72 0
-148 -70 0
-149 -71 0
-150 -72 0
-121 -73 0
-122 -74 0
-123 -75 0
-133 -73 0
-134 -74 0
-135 -75 0
-139 -73 0
-140 -74 0
-141 -75 0
-142 -73 0
-143 -74 0
-144 -75 0
-103 -76 0
-104 -77 0
-105 -78 0
-130 -79 0
-131 -80 0
-132 -81 0
-121 -82 0
-122 -83 0
-123 -84 0
-133 -82 0
-134 -83 0
-135 -84 0
-139 -82 0
-140 -83 0
-141 -84 0
-103 -85 0
-104 -86 0
-105 -87 0
-139 -85 0
-140 -86 0
-141 -87 0
-148 -85 0
-149 -86 0
-150 -87 0
-112 -88 0
-113 -89 0
-114 -90 0
-124 -88 0
-125 -89 0
-126 -90 0
-127 -91 0
-128 -92 0
-129 -93 0
-136 -91 0
-137 -92 0
-138 -93 0
-121 -94 0
-122 -95 0
-123 -96 0
-112 -97 0
-113 -98 0
-114 -99 0
-127 -97 0
-128 -98 0
-129 -99 0
-130 -97 0
-131 -98 0
-132 -99 0
-142 -97 0
-143 -98 0
-144 -99 0
-103 -100 0
-104 -101 0
-105 -102 0
-139 -100 0
-140 -101 0
-141 -102 0
